50
100
96
91
91
89
87
85
84
83
82
79
78
77
77
75
75
70
68
66
64
62
62
56
53
51
44
41
40
38
38
36
34
31
30
29
28
27
26
23
17
16
15
14
14
12
11
10
8
8
4
2
